NAME : full_constant_constant_10_10_1.tsp
COMMENT : full_constant_constant_10_10_1.tsp
TYPE : TSP
DIMENSION : 36
EDGE_WEIGHT_TYPE : EUC_2D
NODE_COORD_SECTION
1 10.000000 10.000000
2 10.000000 11.000000
3 10.000000 12.000000
4 10.000000 13.000000
5 10.000000 14.000000
6 10.000000 15.000000
7 10.000000 16.000000
8 10.000000 17.000000
9 10.000000 18.000000
10 10.000000 19.000000
11 11.000000 10.000000
12 11.000000 19.000000
13 12.000000 10.000000
14 12.000000 19.000000
15 13.000000 10.000000
16 13.000000 19.000000
17 14.000000 10.000000
18 14.000000 19.000000
19 15.000000 10.000000
20 15.000000 19.000000
21 16.000000 10.000000
22 16.000000 19.000000
23 17.000000 10.000000
24 17.000000 19.000000
25 18.000000 10.000000
26 18.000000 19.000000
27 19.000000 10.000000
28 19.000000 11.000000
29 19.000000 12.000000
30 19.000000 13.000000
31 19.000000 14.000000
32 19.000000 15.000000
33 19.000000 16.000000
34 19.000000 17.000000
35 19.000000 18.000000
36 19.000000 19.000000
EOF